language ESSENCE' 1.0
letting values be [[9, 0, 0, 4, 1, 8, 0, 6, 0], [0, 1, 6, 5, 3, 9, 0, 0, 7], [3, 8, 5, 0, 7, 0, 1, 4, 9], [0, 6, 4, 0, 2, 0, 7, 9, 8], [2, 0, 9, 1, 8, 0, 0, 5, 4], [8, 5, 7, 9, 0, 4, 0, 2, 1], [0, 2, 0, 8, 4, 3, 0, 0, 6], [0, 4, 0, 7, 9, 2, 8, 0, 5], [0, 9, 0, 0, 5, 1, 4, 3, 2]]